Route #1: 20 34 2 30 29 54
Route #2: 5 45 27 59 24 8 13
Route #3: 7 16 61 60 25 19 26
Route #4: 10 42 41 3 48 36 49
Route #5: 9 38 31 43 46 1 18 52
Route #6: 6 37 57 62 47 4 23 39
Route #7: 22 50 51 35 17 28
Route #8: 56 15 44 33 11
Route #9: 21 40 14 58 32 55 53 12
Cost 1621
Time 0.196393
